60
1 3
23 83
9 31
1 47
17 23
10 83
22 59
23 53
1 95
14 12
6 66
8 45
19 7
13 98
2 82
27 73
28 52
24 19
27 28
20 84
28 5
14 21
26 79
6 36
20 78
3 99
4 47
5 10
9 4
16 18
12 70
3 22
22 1
29 6
11 60
14 30
1 59
27 79
17 28
5 14
13 18
14 99
8 8
21 68
5 67
18 48
1 79
9 61
8 12
23 59
9 59
19 39
9 91
18 57
1 35
22 74
12 35
12 67
15 31
27 4
